
%FILE DATA:	Soccer Computational Problem for MiniZinc Models	%
%AUTHOR:	Jack Wall	%
%CONTACT:  	116397063@umail.ucc.ie			%
%LAST UPDATE:	03/03/2020, 16:00:17						%
%DESCRIPTION: 	28 games played with 14 games left				%


n=7; %number of teams

%Games to play
games=[|3,7|2,1|4,1|7,6|6,5|6,2|1,2|4,3|6,1|1,5|3,4|5,6|5,3|4,6|];

%Initial points
iPoints=[9,10,11,11,13,7,20];

%POSITION CONSTRAINTS
% [|teamID, operator, position|...]
% operators index:
%  1 for =  operator
%  2 for >  operator
%  3 for >= operator
%  4 for <  operator
%  5 for <= operator
positionConstraints=[|7,1,1|1,5,2|5,1,3|3,5,4|];